p cnf 400 1
400 0
w 1 0.905791
w 2 1 1
w 2 -1 0
w 3 2 1
w 3 -2 0
w 4 3 1
w 4 -3 0
w 5 4 0
w 5 -4 1
w 6 5 0
w 6 -5 1
w 7 6 0
w 7 -6 1
w 8 7 0
w 8 -7 1
w 9 8 1
w 9 -8 0
w 10 9 0.710037
w 10 -9 0.108005
w 11 10 0
w 11 -10 1
w 12 11 1
w 12 -11 0
w 13 12 0.0614112
w 13 -12 0.837789
w 14 13 0
w 14 -13 1
w 15 14 1
w 15 -14 0
w 16 15 0
w 16 -15 1
w 17 16 0
w 17 -16 1
w 18 17 0
w 18 -17 1
w 19 18 0
w 19 -18 1
w 20 19 0.401715
w 20 -19 0.025962
w 21 1 0
w 21 -1 1
w 22 21 2 0
w 22 21 -2 1
w 22 -21 2 1
w 22 -21 -2 0
w 23 22 3 0
w 23 22 -3 0
w 23 -22 3 0
w 23 -22 -3 1
w 24 23 4 0
w 24 23 -4 1
w 24 -23 4 1
w 24 -23 -4 0
w 25 24 5 0
w 25 24 -5 1
w 25 -24 5 0
w 25 -24 -5 0
w 26 25 6 0
w 26 25 -6 1
w 26 -25 6 1
w 26 -25 -6 1
w 27 26 7 0
w 27 26 -7 1
w 27 -26 7 1
w 27 -26 -7 0
w 28 27 8 0.822507
w 28 27 -8 0.786269
w 28 -27 8 0.646688
w 28 -27 -8 0.0823934
w 29 28 9 0
w 29 28 -9 1
w 29 -28 9 0
w 29 -28 -9 1
w 30 29 10 0
w 30 29 -10 1
w 30 -29 10 1
w 30 -29 -10 1
w 31 30 11 1
w 31 30 -11 1
w 31 -30 11 0
w 31 -30 -11 1
w 32 31 12 0.0522016
w 32 31 -12 0.366813
w 32 -31 12 0.716715
w 32 -31 -12 0.386103
w 33 32 13 0
w 33 32 -13 1
w 33 -32 13 1
w 33 -32 -13 1
w 34 33 14 0.145969
w 34 33 -14 0.0324399
w 34 -33 14 0.702574
w 34 -33 -14 0.792657
w 35 34 15 0
w 35 34 -15 1
w 35 -34 15 0
w 35 -34 -15 0
w 36 35 16 1
w 36 35 -16 0
w 36 -35 16 1
w 36 -35 -16 0
w 37 36 17 1
w 37 36 -17 1
w 37 -36 17 0
w 37 -36 -17 1
w 38 37 18 1
w 38 37 -18 1
w 38 -37 18 1
w 38 -37 -18 0
w 39 38 19 1
w 39 38 -19 0
w 39 -38 19 1
w 39 -38 -19 0
w 40 39 20 1
w 40 39 -20 0
w 40 -39 20 0
w 40 -39 -20 0
w 41 21 0.320194
w 41 -21 0.131122
w 42 41 22 0
w 42 41 -22 1
w 42 -41 22 0
w 42 -41 -22 1
w 43 42 23 1
w 43 42 -23 0
w 43 -42 23 1
w 43 -42 -23 0
w 44 43 24 1
w 44 43 -24 0
w 44 -43 24 0
w 44 -43 -24 1
w 45 44 25 1
w 45 44 -25 0
w 45 -44 25 1
w 45 -44 -25 1
w 46 45 26 1
w 46 45 -26 0
w 46 -45 26 1
w 46 -45 -26 0
w 47 46 27 0.138752
w 47 46 -27 0.841299
w 47 -46 27 0.201061
w 47 -46 -27 0.269874
w 48 47 28 1
w 48 47 -28 1
w 48 -47 28 1
w 48 -47 -28 0
w 49 48 29 1
w 49 48 -29 0
w 49 -48 29 1
w 49 -48 -29 0
w 50 49 30 0.106159
w 50 49 -30 0.24557
w 50 -49 30 0.347131
w 50 -49 -30 0.27999
w 51 50 31 0.88673
w 51 50 -31 0.686231
w 51 -50 31 0.26609
w 51 -50 -31 0.389317
w 52 51 32 0.373318
w 52 51 -32 0.0648246
w 52 -51 32 0.612346
w 52 -51 -32 0.451252
w 53 52 33 0.751098
w 53 52 -33 0.292551
w 53 -52 33 0.146754
w 53 -52 -33 0.0209718
w 54 53 34 0.233127
w 54 53 -34 0.670009
w 54 -53 34 0.753787
w 54 -53 -34 0.0708366
w 55 54 35 0
w 55 54 -35 0
w 55 -54 35 0
w 55 -54 -35 1
w 56 55 36 1
w 56 55 -36 0
w 56 -55 36 1
w 56 -55 -36 0
w 57 56 37 1
w 57 56 -37 1
w 57 -56 37 1
w 57 -56 -37 0
w 58 57 38 0
w 58 57 -38 1
w 58 -57 38 1
w 58 -57 -38 1
w 59 58 39 0.602896
w 59 58 -39 0.0383857
w 59 -58 39 0.280542
w 59 -58 -39 0.74965
w 60 59 40 1
w 60 59 -40 0
w 60 -59 40 1
w 60 -59 -40 1
w 61 41 1
w 61 -41 0
w 62 61 42 0.792463
w 62 61 -42 0.438266
w 62 -61 42 0.638575
w 62 -61 -42 0.460624
w 63 62 43 0
w 63 62 -43 1
w 63 -62 43 0
w 63 -62 -43 0
w 64 63 44 0
w 64 63 -44 1
w 64 -63 44 1
w 64 -63 -44 0
w 65 64 45 0
w 65 64 -45 1
w 65 -64 45 1
w 65 -64 -45 1
w 66 65 46 0.536816
w 66 65 -46 0.240378
w 66 -65 46 0.528991
w 66 -65 -46 0.596173
w 67 66 47 0
w 67 66 -47 0
w 67 -66 47 1
w 67 -66 -47 0
w 68 67 48 0
w 68 67 -48 1
w 68 -67 48 0
w 68 -67 -48 0
w 69 68 49 0.460515
w 69 68 -49 0.232312
w 69 -68 49 0.192824
w 69 -68 -49 0.184315
w 70 69 50 0.46451
w 70 69 -50 0.111176
w 70 -69 50 0.454688
w 70 -69 -50 0.899617
w 71 70 51 0
w 71 70 -51 1
w 71 -70 51 0
w 71 -70 -51 1
w 72 71 52 0.586203
w 72 71 -52 0.701077
w 72 -71 52 0.071676
w 72 -71 -52 0.115194
w 73 72 53 1
w 73 72 -53 1
w 73 -72 53 1
w 73 -72 -53 0
w 74 73 54 0
w 74 73 -54 0
w 74 -73 54 0
w 74 -73 -54 1
w 75 74 55 1
w 75 74 -55 0
w 75 -74 55 0
w 75 -74 -55 0
w 76 75 56 0.562706
w 76 75 -56 0.0259888
w 76 -75 56 0.0466254
w 76 -75 -56 0.0173943
w 77 76 57 0.677042
w 77 76 -57 0.683225
w 77 -76 57 0.797067
w 77 -76 -57 0.483904
w 78 77 58 0.628365
w 78 77 -58 0.0701066
w 78 -77 58 0.548563
w 78 -77 -58 0.700041
w 79 78 59 0
w 79 78 -59 1
w 79 -78 59 1
w 79 -78 -59 1
w 80 79 60 0.00460426
w 80 79 -60 0.706176
w 80 -79 60 0.452818
w 80 -79 -60 0.554791
w 81 61 0.864725
w 81 -61 0.923446
w 82 81 62 1
w 82 81 -62 0
w 82 -81 62 0
w 82 -81 -62 1
w 83 82 63 1
w 83 82 -63 0
w 83 -82 63 0
w 83 -82 -63 0
w 84 83 64 0.233587
w 84 83 -64 0.890951
w 84 -83 64 0.619756
w 84 -83 -64 0.861952
w 85 84 65 0.16832
w 85 84 -65 0.561993
w 85 -84 65 0.146358
w 85 -84 -65 0.0141336
w 86 85 66 1
w 86 85 -66 0
w 86 -85 66 0
w 86 -85 -66 0
w 87 86 67 1
w 87 86 -67 1
w 87 -86 67 1
w 87 -86 -67 0
w 88 87 68 0
w 88 87 -68 1
w 88 -87 68 1
w 88 -87 -68 1
w 89 88 69 0
w 89 88 -69 0
w 89 -88 69 0
w 89 -88 -69 1
w 90 89 70 0.192519
w 90 89 -70 0.107407
w 90 -89 70 0.645021
w 90 -89 -70 0.812276
w 91 90 71 0.606079
w 91 90 -71 0.980595
w 91 -90 71 0.531352
w 91 -90 -71 0.752437
w 92 91 72 0.213573
w 92 91 -72 0.711056
w 92 -91 72 0.477467
w 92 -91 -72 0.646637
w 93 92 73 0
w 93 92 -73 0
w 93 -92 73 1
w 93 -92 -73 0
w 94 93 74 0
w 94 93 -74 0
w 94 -93 74 1
w 94 -93 -74 1
w 95 94 75 1
w 95 94 -75 0
w 95 -94 75 0
w 95 -94 -75 1
w 96 95 76 0.503843
w 96 95 -76 0.486654
w 96 -95 76 0.978671
w 96 -95 -76 0.148864
w 97 96 77 1
w 97 96 -77 0
w 97 -96 77 1
w 97 -96 -77 1
w 98 97 78 0
w 98 97 -78 1
w 98 -97 78 0
w 98 -97 -78 0
w 99 98 79 0.418102
w 99 98 -79 0.872112
w 99 -98 79 0.085011
w 99 -98 -79 0.270192
w 100 99 80 1
w 100 99 -80 1
w 100 -99 80 0
w 100 -99 -80 1
w 101 81 1
w 101 -81 0
w 102 101 82 1
w 102 101 -82 0
w 102 -101 82 0
w 102 -101 -82 1
w 103 102 83 1
w 103 102 -83 1
w 103 -102 83 1
w 103 -102 -83 0
w 104 103 84 0
w 104 103 -84 1
w 104 -103 84 0
w 104 -103 -84 0
w 105 104 85 0
w 105 104 -85 1
w 105 -104 85 0
w 105 -104 -85 1
w 106 105 86 1
w 106 105 -86 0
w 106 -105 86 1
w 106 -105 -86 0
w 107 106 87 0
w 107 106 -87 0
w 107 -106 87 1
w 107 -106 -87 1
w 108 107 88 0.593665
w 108 107 -88 0.368357
w 108 -107 88 0.749274
w 108 -107 -88 0.741282
w 109 108 89 1
w 109 108 -89 1
w 109 -108 89 1
w 109 -108 -89 0
w 110 109 90 0.557885
w 110 109 -90 0.684451
w 110 -109 90 0.495588
w 110 -109 -90 0.681357
w 111 110 91 0.742241
w 111 110 -91 0.0232651
w 111 -110 91 0.846783
w 111 -110 -91 0.328487
w 112 111 92 0
w 112 111 -92 0
w 112 -111 92 1
w 112 -111 -92 1
w 113 112 93 1
w 113 112 -93 1
w 113 -112 93 0
w 113 -112 -93 0
w 114 113 94 1
w 114 113 -94 0
w 114 -113 94 1
w 114 -113 -94 0
w 115 114 95 0
w 115 114 -95 1
w 115 -114 95 1
w 115 -114 -95 1
w 116 115 96 0
w 116 115 -96 0
w 116 -115 96 0
w 116 -115 -96 1
w 117 116 97 0.315474
w 117 116 -97 0.381685
w 117 -116 97 0.620829
w 117 -116 -97 0.64396
w 118 117 98 1
w 118 117 -98 0
w 118 -117 98 0
w 118 -117 -98 0
w 119 118 99 0.833026
w 119 118 -99 0.278445
w 119 -118 99 0.54321
w 119 -118 -99 0.766265
w 120 119 100 1
w 120 119 -100 1
w 120 -119 100 0
w 120 -119 -100 1
w 121 101 0
w 121 -101 1
w 122 121 102 0.697113
w 122 121 -102 0.400139
w 122 -121 102 0.129351
w 122 -121 -102 0.774757
w 123 122 103 1
w 123 122 -103 0
w 123 -122 103 0
w 123 -122 -103 0
w 124 123 104 0
w 124 123 -104 0
w 124 -123 104 1
w 124 -123 -104 1
w 125 124 105 1
w 125 124 -105 1
w 125 -124 105 0
w 125 -124 -105 1
w 126 125 106 0
w 126 125 -106 1
w 126 -125 106 1
w 126 -125 -106 1
w 127 126 107 0
w 127 126 -107 1
w 127 -126 107 1
w 127 -126 -107 1
w 128 127 108 1
w 128 127 -108 1
w 128 -127 108 0
w 128 -127 -108 0
w 129 128 109 1
w 129 128 -109 0
w 129 -128 109 1
w 129 -128 -109 1
w 130 129 110 0
w 130 129 -110 1
w 130 -129 110 1
w 130 -129 -110 1
w 131 130 111 0
w 131 130 -111 1
w 131 -130 111 1
w 131 -130 -111 1
w 132 131 112 0.455119
w 132 131 -112 0.338927
w 132 -131 112 0.272441
w 132 -131 -112 0.701621
w 133 132 113 1
w 133 132 -113 1
w 133 -132 113 1
w 133 -132 -113 0
w 134 133 114 0.791581
w 134 133 -114 0.713914
w 134 -133 114 0.781279
w 134 -133 -114 0.391246
w 135 134 115 0.588045
w 135 134 -115 0.3389
w 135 -134 115 0.366295
w 135 -134 -115 0.182498
w 136 135 116 0.727602
w 136 135 -116 0.185466
w 136 -135 116 0.868559
w 136 -135 -116 0.545789
w 137 136 117 0
w 137 136 -117 1
w 137 -136 117 1
w 137 -136 -117 1
w 138 137 118 0
w 138 137 -118 0
w 138 -137 118 1
w 138 -137 -118 0
w 139 138 119 1
w 139 138 -119 1
w 139 -138 119 0
w 139 -138 -119 0
w 140 139 120 1
w 140 139 -120 0
w 140 -139 120 0
w 140 -139 -120 0
w 141 121 1
w 141 -121 0
w 142 141 122 0
w 142 141 -122 1
w 142 -141 122 1
w 142 -141 -122 0
w 143 142 123 0
w 143 142 -123 1
w 143 -142 123 0
w 143 -142 -123 0
w 144 143 124 0.760162
w 144 143 -124 0.825258
w 144 -143 124 0.73232
w 144 -143 -124 0.797288
w 145 144 125 0.822816
w 145 144 -125 0.106855
w 145 -144 125 0.747394
w 145 -144 -125 0.503428
w 146 145 126 1
w 146 145 -126 1
w 146 -145 126 0
w 146 -145 -126 1
w 147 146 127 0
w 147 146 -127 1
w 147 -146 127 0
w 147 -146 -127 1
w 148 147 128 0
w 148 147 -128 1
w 148 -147 128 0
w 148 -147 -128 0
w 149 148 129 0.125269
w 149 148 -129 0.913839
w 149 -148 129 0.254207
w 149 -148 -129 0.847476
w 150 149 130 0
w 150 149 -130 1
w 150 -149 130 0
w 150 -149 -130 1
w 151 150 131 0
w 151 150 -131 0
w 151 -150 131 1
w 151 -150 -131 1
w 152 151 132 1
w 152 151 -132 0
w 152 -151 132 1
w 152 -151 -132 1
w 153 152 133 1
w 153 152 -133 0
w 153 -152 133 1
w 153 -152 -133 0
w 154 153 134 0.27793
w 154 153 -134 0.217922
w 154 -153 134 0.201615
w 154 -153 -134 0.226781
w 155 154 135 1
w 155 154 -135 0
w 155 -154 135 1
w 155 -154 -135 1
w 156 155 136 0
w 156 155 -136 1
w 156 -155 136 1
w 156 -155 -136 0
w 157 156 137 1
w 157 156 -137 0
w 157 -156 137 0
w 157 -156 -137 1
w 158 157 138 0
w 158 157 -138 0
w 158 -157 138 0
w 158 -157 -138 1
w 159 158 139 1
w 159 158 -139 0
w 159 -158 139 0
w 159 -158 -139 0
w 160 159 140 0
w 160 159 -140 1
w 160 -159 140 1
w 160 -159 -140 0
w 161 141 0.234797
w 161 -141 0.94334
w 162 161 142 1
w 162 161 -142 0
w 162 -161 142 0
w 162 -161 -142 1
w 163 162 143 0.867258
w 163 162 -143 0.4358
w 163 -162 143 0.162123
w 163 -162 -143 0.0203337
w 164 163 144 1
w 164 163 -144 1
w 164 -163 144 0
w 164 -163 -144 0
w 165 164 145 1
w 165 164 -145 0
w 165 -164 145 0
w 165 -164 -145 1
w 166 165 146 0
w 166 165 -146 0
w 166 -165 146 1
w 166 -165 -146 0
w 167 166 147 0.315686
w 167 166 -147 0.0648952
w 167 -166 147 0.724733
w 167 -166 -147 0.550483
w 168 167 148 1
w 168 167 -148 1
w 168 -167 148 0
w 168 -167 -148 1
w 169 168 149 1
w 169 168 -149 0
w 169 -168 149 0
w 169 -168 -149 0
w 170 169 150 0
w 170 169 -150 1
w 170 -169 150 1
w 170 -169 -150 0
w 171 170 151 1
w 171 170 -151 1
w 171 -170 151 1
w 171 -170 -151 0
w 172 171 152 1
w 172 171 -152 0
w 172 -171 152 0
w 172 -171 -152 0
w 173 172 153 1
w 173 172 -153 0
w 173 -172 153 1
w 173 -172 -153 0
w 174 173 154 0
w 174 173 -154 1
w 174 -173 154 0
w 174 -173 -154 0
w 175 174 155 0
w 175 174 -155 0
w 175 -174 155 1
w 175 -174 -155 0
w 176 175 156 1
w 176 175 -156 0
w 176 -175 156 1
w 176 -175 -156 0
w 177 176 157 1
w 177 176 -157 0
w 177 -176 157 1
w 177 -176 -157 0
w 178 177 158 0.602628
w 178 177 -158 0.791449
w 178 -177 158 0.830834
w 178 -177 -158 0.17706
w 179 178 159 1
w 179 178 -159 0
w 179 -178 159 1
w 179 -178 -159 1
w 180 179 160 0.957537
w 180 179 -160 0.21571
w 180 -179 160 0.874689
w 180 -179 -160 0.524999
w 181 161 0.381923
w 181 -161 0.111307
w 182 181 162 0
w 182 181 -162 0
w 182 -181 162 1
w 182 -181 -162 1
w 183 182 163 1
w 183 182 -163 0
w 183 -182 163 1
w 183 -182 -163 0
w 184 183 164 1
w 184 183 -164 0
w 184 -183 164 0
w 184 -183 -164 1
w 185 184 165 0
w 185 184 -165 1
w 185 -184 165 1
w 185 -184 -165 0
w 186 185 166 0
w 186 185 -166 1
w 186 -185 166 1
w 186 -185 -166 1
w 187 186 167 0
w 187 186 -167 1
w 187 -186 167 1
w 187 -186 -167 0
w 188 187 168 0.0111013
w 188 187 -168 0.013148
w 188 -187 168 0.0656704
w 188 -187 -168 0.611884
w 189 188 169 0
w 189 188 -169 1
w 189 -188 169 0
w 189 -188 -169 0
w 190 189 170 0.606479
w 190 189 -170 0.600237
w 190 -189 170 0.445445
w 190 -189 -170 0.145521
w 191 190 171 0
w 191 190 -171 0
w 191 -190 171 1
w 191 -190 -171 1
w 192 191 172 1
w 192 191 -172 1
w 192 -191 172 1
w 192 -191 -172 0
w 193 192 173 1
w 193 192 -173 1
w 193 -192 173 0
w 193 -192 -173 1
w 194 193 174 1
w 194 193 -174 0
w 194 -193 174 1
w 194 -193 -174 0
w 195 194 175 1
w 195 194 -175 1
w 195 -194 175 0
w 195 -194 -175 1
w 196 195 176 0.237864
w 196 195 -176 0.136553
w 196 -195 176 0.411901
w 196 -195 -176 0.683309
w 197 196 177 0
w 197 196 -177 0
w 197 -196 177 0
w 197 -196 -177 1
w 198 197 178 0
w 198 197 -178 0
w 198 -197 178 1
w 198 -197 -178 0
w 199 198 179 0.797182
w 199 198 -179 0.438233
w 199 -198 179 0.337652
w 199 -198 -179 0.967772
w 200 199 180 0.536371
w 200 199 -180 0.0517746
w 200 -199 180 0.346486
w 200 -199 -180 0.748239
w 201 181 1
w 201 -181 0
w 202 201 182 0
w 202 201 -182 1
w 202 -201 182 1
w 202 -201 -182 1
w 203 202 183 1
w 203 202 -183 1
w 203 -202 183 0
w 203 -202 -183 0
w 204 203 184 0.34245
w 204 203 -184 0.0682261
w 204 -203 184 0.521039
w 204 -203 -184 0.679767
w 205 204 185 0.519226
w 205 204 -185 0.108463
w 205 -204 185 0.40164
w 205 -204 -185 0.471457
w 206 205 186 0.839873
w 206 205 -186 0.809109
w 206 -205 186 0.873418
w 206 -205 -186 0.726681
w 207 206 187 1
w 207 206 -187 1
w 207 -206 187 0
w 207 -206 -187 1
w 208 207 188 0
w 208 207 -188 1
w 208 -207 188 1
w 208 -207 -188 1
w 209 208 189 0
w 209 208 -189 0
w 209 -208 189 0
w 209 -208 -189 1
w 210 209 190 0
w 210 209 -190 1
w 210 -209 190 1
w 210 -209 -190 1
w 211 210 191 0
w 211 210 -191 0
w 211 -210 191 1
w 211 -210 -191 1
w 212 211 192 0
w 212 211 -192 1
w 212 -211 192 1
w 212 -211 -192 1
w 213 212 193 0.052498
w 213 212 -193 0.634347
w 213 -212 193 0.0842398
w 213 -212 -193 0.179137
w 214 213 194 1
w 214 213 -194 1
w 214 -213 194 0
w 214 -213 -194 0
w 215 214 195 0
w 215 214 -195 1
w 215 -214 195 0
w 215 -214 -195 0
w 216 215 196 0
w 216 215 -196 0
w 216 -215 196 1
w 216 -215 -196 1
w 217 216 197 0.740372
w 217 216 -197 0.424143
w 217 -216 197 0.278766
w 217 -216 -197 0.734996
w 218 217 198 0
w 218 217 -198 1
w 218 -217 198 0
w 218 -217 -198 1
w 219 218 199 1
w 219 218 -199 0
w 219 -218 199 1
w 219 -218 -199 0
w 220 219 200 0.890582
w 220 219 -200 0.479889
w 220 -219 200 0.944749
w 220 -219 -200 0.36313
w 221 201 0
w 221 -201 1
w 222 221 202 1
w 222 221 -202 0
w 222 -221 202 1
w 222 -221 -202 1
w 223 222 203 0
w 223 222 -203 1
w 223 -222 203 0
w 223 -222 -203 0
w 224 223 204 0
w 224 223 -204 1
w 224 -223 204 0
w 224 -223 -204 0
w 225 224 205 0
w 225 224 -205 0
w 225 -224 205 0
w 225 -224 -205 1
w 226 225 206 1
w 226 225 -206 1
w 226 -225 206 0
w 226 -225 -206 0
w 227 226 207 0
w 227 226 -207 0
w 227 -226 207 0
w 227 -226 -207 1
w 228 227 208 0.849101
w 228 227 -208 0.884209
w 228 -227 208 0.336203
w 228 -227 -208 0.946874
w 229 228 209 0.931463
w 229 228 -209 0.97517
w 229 -228 209 0.567594
w 229 -228 -209 0.950865
w 230 229 210 1
w 230 229 -210 1
w 230 -229 210 0
w 230 -229 -210 0
w 231 230 211 0
w 231 230 -211 0
w 231 -230 211 1
w 231 -230 -211 0
w 232 231 212 1
w 232 231 -212 0
w 232 -231 212 0
w 232 -231 -212 0
w 233 232 213 0
w 233 232 -213 0
w 233 -232 213 0
w 233 -232 -213 1
w 234 233 214 0
w 234 233 -214 1
w 234 -233 214 1
w 234 -233 -214 0
w 235 234 215 1
w 235 234 -215 0
w 235 -234 215 0
w 235 -234 -215 0
w 236 235 216 1
w 236 235 -216 1
w 236 -235 216 1
w 236 -235 -216 0
w 237 236 217 1
w 237 236 -217 0
w 237 -236 217 0
w 237 -236 -217 0
w 238 237 218 1
w 238 237 -218 0
w 238 -237 218 0
w 238 -237 -218 0
w 239 238 219 0
w 239 238 -219 0
w 239 -238 219 1
w 239 -238 -219 1
w 240 239 220 0.364699
w 240 239 -220 0.929118
w 240 -239 220 0.388248
w 240 -239 -220 0.661103
w 241 221 0
w 241 -221 1
w 242 241 222 0.862871
w 242 241 -222 0.406483
w 242 -241 222 0.486484
w 242 -241 -222 0.128013
w 243 242 223 0
w 243 242 -223 1
w 243 -242 223 0
w 243 -242 -223 1
w 244 243 224 0.876201
w 244 243 -224 0.590764
w 244 -243 224 0.461652
w 244 -243 -224 0.0564702
w 245 244 225 0
w 245 244 -225 0
w 245 -244 225 1
w 245 -244 -225 1
w 246 245 226 0
w 246 245 -226 0
w 246 -245 226 1
w 246 -245 -226 0
w 247 246 227 0.521482
w 247 246 -227 0.408276
w 247 -246 227 0.473747
w 247 -246 -227 0.13368
w 248 247 228 0
w 248 247 -228 0
w 248 -247 228 1
w 248 -247 -228 1
w 249 248 229 0
w 249 248 -229 1
w 249 -248 229 1
w 249 -248 -229 0
w 250 249 230 1
w 250 249 -230 0
w 250 -249 230 0
w 250 -249 -230 1
w 251 250 231 1
w 251 250 -231 0
w 251 -250 231 0
w 251 -250 -231 1
w 252 251 232 0
w 252 251 -232 1
w 252 -251 232 1
w 252 -251 -232 1
w 253 252 233 0
w 253 252 -233 0
w 253 -252 233 1
w 253 -252 -233 0
w 254 253 234 0
w 254 253 -234 0
w 254 -253 234 1
w 254 -253 -234 1
w 255 254 235 1
w 255 254 -235 1
w 255 -254 235 0
w 255 -254 -235 1
w 256 255 236 0
w 256 255 -236 0
w 256 -255 236 1
w 256 -255 -236 0
w 257 256 237 0
w 257 256 -237 0
w 257 -256 237 1
w 257 -256 -237 1
w 258 257 238 0
w 258 257 -238 0
w 258 -257 238 0
w 258 -257 -238 1
w 259 258 239 0
w 259 258 -239 0
w 259 -258 239 1
w 259 -258 -239 0
w 260 259 240 0.270386
w 260 259 -240 0.840321
w 260 -259 240 0.0974458
w 260 -259 -240 0.478512
w 261 241 0
w 261 -241 1
w 262 261 242 1
w 262 261 -242 1
w 262 -261 242 1
w 262 -261 -242 0
w 263 262 243 0
w 263 262 -243 0
w 263 -262 243 1
w 263 -262 -243 1
w 264 263 244 1
w 264 263 -244 0
w 264 -263 244 1
w 264 -263 -244 0
w 265 264 245 1
w 265 264 -245 0
w 265 -264 245 0
w 265 -264 -245 1
w 266 265 246 0
w 266 265 -246 0
w 266 -265 246 1
w 266 -265 -246 1
w 267 266 247 0.316825
w 267 266 -247 0.963526
w 267 -266 247 0.386119
w 267 -266 -247 0.449688
w 268 267 248 0
w 268 267 -248 1
w 268 -267 248 0
w 268 -267 -248 0
w 269 268 249 0
w 269 268 -249 0
w 269 -268 249 1
w 269 -268 -249 1
w 270 269 250 0
w 270 269 -250 1
w 270 -269 250 1
w 270 -269 -250 1
w 271 270 251 0
w 271 270 -251 1
w 271 -270 251 0
w 271 -270 -251 0
w 272 271 252 0.947544
w 272 271 -252 0.25698
w 272 -271 252 0.540005
w 272 -271 -252 0.424048
w 273 272 253 1
w 273 272 -253 0
w 273 -272 253 0
w 273 -272 -253 0
w 274 273 254 0
w 274 273 -254 0
w 274 -273 254 1
w 274 -273 -254 0
w 275 274 255 0
w 275 274 -255 0
w 275 -274 255 0
w 275 -274 -255 1
w 276 275 256 0.563768
w 276 275 -256 0.606502
w 276 -275 256 0.421487
w 276 -275 -256 0.840705
w 277 276 257 0
w 277 276 -257 1
w 277 -276 257 0
w 277 -276 -257 0
w 278 277 258 0
w 278 277 -258 1
w 278 -277 258 1
w 278 -277 -258 0
w 279 278 259 0
w 279 278 -259 1
w 279 -278 259 0
w 279 -278 -259 0
w 280 279 260 0
w 280 279 -260 0
w 280 -279 260 1
w 280 -279 -260 1
w 281 261 0
w 281 -261 1
w 282 281 262 1
w 282 281 -262 0
w 282 -281 262 1
w 282 -281 -262 1
w 283 282 263 0.0593033
w 283 282 -263 0.948678
w 283 -282 263 0.811357
w 283 -282 -263 0.549771
w 284 283 264 0
w 284 283 -264 1
w 284 -283 264 1
w 284 -283 -264 1
w 285 284 265 1
w 285 284 -265 0
w 285 -284 265 1
w 285 -284 -265 1
w 286 285 266 0
w 286 285 -266 1
w 286 -285 266 0
w 286 -285 -266 1
w 287 286 267 1
w 287 286 -267 1
w 287 -286 267 1
w 287 -286 -267 0
w 288 287 268 0.266124
w 288 287 -268 0.983216
w 288 -287 268 0.194561
w 288 -287 -268 0.718925
w 289 288 269 1
w 289 288 -269 0
w 289 -288 269 1
w 289 -288 -269 0
w 290 289 270 0
w 290 289 -270 0
w 290 -289 270 1
w 290 -289 -270 0
w 291 290 271 1
w 291 290 -271 1
w 291 -290 271 1
w 291 -290 -271 0
w 292 291 272 1
w 292 291 -272 1
w 292 -291 272 1
w 292 -291 -272 0
w 293 292 273 0.902377
w 293 292 -273 0.106286
w 293 -292 273 0.174471
w 293 -292 -273 0.694013
w 294 293 274 1
w 294 293 -274 0
w 294 -293 274 0
w 294 -293 -274 0
w 295 294 275 0.321922
w 295 294 -275 0.45729
w 295 -294 275 0.273439
w 295 -294 -275 0.298492
w 296 295 276 0.426078
w 296 295 -276 0.306288
w 296 -295 276 0.218041
w 296 -295 -276 0.928875
w 297 296 277 0.21331
w 297 296 -277 0.385977
w 297 -296 277 0.0708528
w 297 -296 -277 0.768868
w 298 297 278 0.6638
w 298 297 -278 0.330099
w 298 -297 278 0.0167551
w 298 -297 -278 0.789936
w 299 298 279 1
w 299 298 -279 0
w 299 -298 279 0
w 299 -298 -279 0
w 300 299 280 1
w 300 299 -280 0
w 300 -299 280 1
w 300 -299 -280 1
w 301 281 1
w 301 -281 0
w 302 301 282 0.709635
w 302 301 -282 0.608693
w 302 -301 282 0.0898591
w 302 -301 -282 0.494924
w 303 302 283 0
w 303 302 -283 1
w 303 -302 283 1
w 303 -302 -283 1
w 304 303 284 0
w 304 303 -284 0
w 304 -303 284 0
w 304 -303 -284 1
w 305 304 285 0
w 305 304 -285 0
w 305 -304 285 1
w 305 -304 -285 1
w 306 305 286 0.551943
w 306 305 -286 0.724236
w 306 -305 286 0.978798
w 306 -305 -286 0.864678
w 307 306 287 1
w 307 306 -287 0
w 307 -306 287 1
w 307 -306 -287 0
w 308 307 288 0
w 308 307 -288 0
w 308 -307 288 1
w 308 -307 -288 1
w 309 308 289 0
w 309 308 -289 1
w 309 -308 289 0
w 309 -308 -289 1
w 310 309 290 0
w 310 309 -290 1
w 310 -309 290 1
w 310 -309 -290 0
w 311 310 291 0
w 311 310 -291 0
w 311 -310 291 1
w 311 -310 -291 1
w 312 311 292 0
w 312 311 -292 1
w 312 -311 292 1
w 312 -311 -292 1
w 313 312 293 0
w 313 312 -293 0
w 313 -312 293 0
w 313 -312 -293 1
w 314 313 294 1
w 314 313 -294 1
w 314 -313 294 0
w 314 -313 -294 0
w 315 314 295 0.303082
w 315 314 -295 0.0184843
w 315 -314 295 0.322865
w 315 -314 -295 0.745143
w 316 315 296 0.716527
w 316 315 -296 0.536827
w 316 -315 296 0.335434
w 316 -315 -296 0.805333
w 317 316 297 1
w 317 316 -297 0
w 317 -316 297 0
w 317 -316 -297 1
w 318 317 298 0
w 318 317 -298 1
w 318 -317 298 1
w 318 -317 -298 1
w 319 318 299 0
w 319 318 -299 1
w 319 -318 299 1
w 319 -318 -299 0
w 320 319 300 1
w 320 319 -300 1
w 320 -319 300 1
w 320 -319 -300 0
w 321 301 0
w 321 -301 1
w 322 321 302 1
w 322 321 -302 1
w 322 -321 302 0
w 322 -321 -302 0
w 323 322 303 0
w 323 322 -303 1
w 323 -322 303 1
w 323 -322 -303 1
w 324 323 304 0.698311
w 324 323 -304 0.680682
w 324 -323 304 0.0153432
w 324 -323 -304 0.63081
w 325 324 305 0.117475
w 325 324 -305 0.557482
w 325 -324 305 0.0247546
w 325 -324 -305 0.951633
w 326 325 306 0.76605
w 326 325 -306 0.85194
w 326 -325 306 0.835769
w 326 -325 -306 0.888368
w 327 326 307 0.996745
w 327 326 -307 0.835353
w 327 -326 307 0.442821
w 327 -326 -307 0.0131989
w 328 327 308 0
w 328 327 -308 0
w 328 -327 308 0
w 328 -327 -308 1
w 329 328 309 1
w 329 328 -309 0
w 329 -328 309 0
w 329 -328 -309 0
w 330 329 310 0
w 330 329 -310 1
w 330 -329 310 1
w 330 -329 -310 0
w 331 330 311 0
w 331 330 -311 0
w 331 -330 311 1
w 331 -330 -311 1
w 332 331 312 1
w 332 331 -312 0
w 332 -331 312 0
w 332 -331 -312 0
w 333 332 313 0.143378
w 333 332 -313 0.89669
w 333 -332 313 0.373199
w 333 -332 -313 0.156577
w 334 333 314 0.333438
w 334 333 -314 0.509095
w 334 -333 314 0.062738
w 334 -333 -314 0.782112
w 335 334 315 0.675402
w 335 334 -315 0.0546532
w 335 -334 315 0.186999
w 335 -334 -315 0.323817
w 336 335 316 0.237099
w 336 335 -316 0.670543
w 336 -335 316 0.479237
w 336 -335 -316 0.302543
w 337 336 317 1
w 337 336 -317 0
w 337 -336 317 0
w 337 -336 -317 0
w 338 337 318 1
w 338 337 -318 1
w 338 -337 318 0
w 338 -337 -318 1
w 339 338 319 1
w 339 338 -319 1
w 339 -338 319 0
w 339 -338 -319 1
w 340 339 320 0.381425
w 340 339 -320 0.243522
w 340 -339 320 0.449643
w 340 -339 -320 0.444163
w 341 321 0
w 341 -321 1
w 342 341 322 0
w 342 341 -322 0
w 342 -341 322 1
w 342 -341 -322 0
w 343 342 323 1
w 343 342 -323 0
w 343 -342 323 0
w 343 -342 -323 1
w 344 343 324 0
w 344 343 -324 1
w 344 -343 324 0
w 344 -343 -324 1
w 345 344 325 0
w 345 344 -325 0
w 345 -344 325 1
w 345 -344 -325 0
w 346 345 326 0.959078
w 346 345 -326 0.252691
w 346 -345 326 0.80417
w 346 -345 -326 0.340502
w 347 346 327 1
w 347 346 -327 1
w 347 -346 327 1
w 347 -346 -327 0
w 348 347 328 0.602134
w 348 347 -328 0.175014
w 348 -347 328 0.347612
w 348 -347 -328 0.609025
w 349 348 329 0.461536
w 349 348 -329 0.095153
w 349 -348 329 0.0599549
w 349 -348 -329 0.223539
w 350 349 330 0
w 350 349 -330 1
w 350 -349 330 1
w 350 -349 -330 0
w 351 350 331 0
w 351 350 -331 1
w 351 -350 331 1
w 351 -350 -331 1
w 352 351 332 0.550968
w 352 351 -332 0.634509
w 352 -351 332 0.239398
w 352 -351 -332 0.355139
w 353 352 333 0.735611
w 353 352 -333 0.608952
w 353 -352 333 0.759677
w 353 -352 -333 0.257457
w 354 353 334 1
w 354 353 -334 1
w 354 -353 334 1
w 354 -353 -334 0
w 355 354 335 0
w 355 354 -335 0
w 355 -354 335 1
w 355 -354 -335 1
w 356 355 336 0
w 356 355 -336 1
w 356 -355 336 1
w 356 -355 -336 1
w 357 356 337 0.472926
w 357 356 -337 0.180652
w 357 -356 337 0.552681
w 357 -356 -337 0.160272
w 358 357 338 0.539387
w 358 357 -338 0.71124
w 358 -357 338 0.490593
w 358 -357 -338 0.778785
w 359 358 339 1
w 359 358 -339 1
w 359 -358 339 0
w 359 -358 -339 1
w 360 359 340 0.889187
w 360 359 -340 0.631444
w 360 -359 340 0.310076
w 360 -359 -340 0.900706
w 361 341 0
w 361 -341 1
w 362 361 342 1
w 362 361 -342 1
w 362 -361 342 0
w 362 -361 -342 1
w 363 362 343 1
w 363 362 -343 1
w 363 -362 343 1
w 363 -362 -343 0
w 364 363 344 0.643683
w 364 363 -344 0.568782
w 364 -363 344 0.771997
w 364 -363 -344 0.18307
w 365 364 345 1
w 365 364 -345 1
w 365 -364 345 0
w 365 -364 -345 0
w 366 365 346 0
w 366 365 -346 1
w 366 -365 346 1
w 366 -365 -346 0
w 367 366 347 0.879547
w 367 366 -347 0.237003
w 367 -366 347 0.743367
w 367 -366 -347 0.979606
w 368 367 348 0.117127
w 368 367 -348 0.643434
w 368 -367 348 0.0303866
w 368 -367 -348 0.187481
w 369 368 349 1
w 369 368 -349 1
w 369 -368 349 0
w 369 -368 -349 1
w 370 369 350 0
w 370 369 -350 1
w 370 -369 350 1
w 370 -369 -350 1
w 371 370 351 1
w 371 370 -351 1
w 371 -370 351 0
w 371 -370 -351 1
w 372 371 352 1
w 372 371 -352 1
w 372 -371 352 1
w 372 -371 -352 0
w 373 372 353 0
w 373 372 -353 1
w 373 -372 353 0
w 373 -372 -353 0
w 374 373 354 0.384296
w 374 373 -354 0.319361
w 374 -373 354 0.861001
w 374 -373 -354 0.571777
w 375 374 355 0
w 375 374 -355 1
w 375 -374 355 1
w 375 -374 -355 1
w 376 375 356 0
w 376 375 -356 0
w 376 -375 356 0
w 376 -375 -356 1
w 377 376 357 1
w 377 376 -357 0
w 377 -376 357 0
w 377 -376 -357 0
w 378 377 358 1
w 378 377 -358 0
w 378 -377 358 1
w 378 -377 -358 1
w 379 378 359 0.315908
w 379 378 -359 0.629859
w 379 -378 359 0.770331
w 379 -378 -359 0.583078
w 380 379 360 1
w 380 379 -360 1
w 380 -379 360 1
w 380 -379 -360 0
w 381 361 1
w 381 -361 0
w 382 381 362 1
w 382 381 -362 0
w 382 -381 362 1
w 382 -381 -362 0
w 383 382 363 1
w 383 382 -363 0
w 383 -382 363 0
w 383 -382 -363 1
w 384 383 364 0
w 384 383 -364 0
w 384 -383 364 0
w 384 -383 -364 1
w 385 384 365 1
w 385 384 -365 1
w 385 -384 365 0
w 385 -384 -365 1
w 386 385 366 0.738948
w 386 385 -366 0.156388
w 386 -385 366 0.228208
w 386 -385 -366 0.339893
w 387 386 367 1
w 387 386 -367 0
w 387 -386 367 0
w 387 -386 -367 0
w 388 387 368 0
w 388 387 -368 1
w 388 -387 368 1
w 388 -387 -368 0
w 389 388 369 0
w 389 388 -369 1
w 389 -388 369 1
w 389 -388 -369 1
w 390 389 370 0
w 390 389 -370 1
w 390 -389 370 0
w 390 -389 -370 0
w 391 390 371 0.677861
w 391 390 -371 0.687122
w 391 -390 371 0.0774629
w 391 -390 -371 0.646478
w 392 391 372 1
w 392 391 -372 1
w 392 -391 372 0
w 392 -391 -372 1
w 393 392 373 0
w 393 392 -373 0
w 393 -392 373 1
w 393 -392 -373 0
w 394 393 374 1
w 394 393 -374 0
w 394 -393 374 0
w 394 -393 -374 0
w 395 394 375 1
w 395 394 -375 0
w 395 -394 375 0
w 395 -394 -375 1
w 396 395 376 0.24108
w 396 395 -376 0.458448
w 396 -395 376 0.214668
w 396 -395 -376 0.808211
w 397 396 377 0.999568
w 397 396 -377 0.486072
w 397 -396 377 0.575291
w 397 -396 -377 0.0770309
w 398 397 378 0
w 398 397 -378 1
w 398 -397 378 1
w 398 -397 -378 0
w 399 398 379 0
w 399 398 -379 0
w 399 -398 379 0
w 399 -398 -379 1
w 400 399 380 0.57948
w 400 399 -380 0.635206
w 400 -399 380 0.0970293
w 400 -399 -380 0.824353